5

0   0   19   3   23
0   0   7   9   16
19   7   0   9   24
3   9   9   0   13
23   16   24   13   0

0   34   15   14   22
34   0   21   20   12
15   21   0   3   9
14   20   3   0   8
22   12   9   8   0